cubic diamond                           
   5.78450000000000     
     0.0000000000000000    0.4880571273739383    0.4880571273739383
     0.4880571273739383    0.0000000000000000    0.4880571273739383
     0.4880571273739383    0.4880571273739383    0.0000000000000000
   Ge
     2
Direct
  0.8750000000000000  0.8750000000000000  0.8750000000000000
  0.1250000000000000  0.1250000000000000  0.1250000000000000
 
