FeSi from aflow ICSD #633541
4.65547841329003
   1.00000000000000  -0.00000000000000   0.00000000000000
   0.00000000000000   1.00000000000000  -0.00000000000000
   0.00000000000000  -0.00000000000000   1.00000000000000
Fe Si
4 4 
direct
   0.13476038461486   0.13476038461486   0.13476038461486
   0.36523961538514   0.86523961538514   0.63476038461486
   0.86523961538514   0.63476038461486   0.36523961538514
   0.63476038461486   0.36523961538514   0.86523961538514
   0.84874890814554   0.84874890814554   0.84874890814554
   0.65125109185446   0.15125109185446   0.34874890814554
   0.15125109185446   0.34874890814554   0.65125109185446
   0.34874890814554   0.65125109185446   0.15125109185446